presolving:
   (0.2s) running MILP presolver
   (0.2s) MILP presolver found nothing
(round 1, exhaustive) 0 del vars, 0 del conss, 0 add conss, 0 chg bounds, 0 chg sides, 0 chg coeffs, 8608 upgd conss, 0 impls, 8438 clqs
   (0.7s) probing: 51/8550 (0.6%) - 0 fixings, 0 aggregations, 0 implications, 0 bound changes
   (0.7s) probing aborted: 50/50 successive totally useless probings
   (0.7s) symmetry computation started: requiring (bin +, int -, cont +), (fixed: bin -, int +, cont -)
   (0.8s) no symmetry present
presolving (2 rounds: 2 fast, 2 medium, 2 exhaustive):
 0 deleted vars, 0 deleted constraints, 0 added constraints, 0 tightened bounds, 0 added holes, 0 changed sides, 150 changed coefficients
 0 implications, 8438 cliques
presolved problem has 8550 variables (8550 bin, 0 int, 0 impl, 0 cont) and 8608 constraints
    152 constraints of type <knapsack>
   8400 constraints of type <setppc>
     56 constraints of type <logicor>
transformed objective value is always integral (scale: 1)
Presolving Time: 0.72

 time | node  | left  |LP iter|LP it/n|mem/heur|mdpt |vars |cons |rows |cuts |sepa|confs|strbr|  dualbound   | primalbound  |  gap   | compl. 
p 1.1s|     1 |     0 |     0 |     - |   locks|   0 |8550 |8609 |8608 |   0 |  0 |   0 |   0 | 0.000000e+00 | 6.211660e+05 |    Inf | unknown
p 1.5s|     1 |     0 |    62 |     - | vbounds|   0 |8550 |8613 |8608 |   0 |  0 |   4 |   0 | 0.000000e+00 | 2.044780e+05 |    Inf | unknown
p 2.0s|     1 |     0 |   119 |     - | vbounds|   0 |8550 |8630 |8608 |   0 |  0 |  25 |   0 | 0.000000e+00 | 2.031150e+05 |    Inf | unknown
  5.0s|     1 |     0 |  5471 |     - |    90M |   0 |8550 |8641 |8608 |   0 |  0 |  36 |   0 | 1.852692e+05 | 2.031150e+05 |   9.63%| unknown
r 5.0s|     1 |     0 |  5471 |     - |shifting|   0 |8550 |8641 |8608 |   0 |  0 |  36 |   0 | 1.852692e+05 | 1.982670e+05 |   7.02%| unknown
i 5.0s|     1 |     0 |  5471 |     - |  oneopt|   0 |8550 |8641 |8608 |   0 |  0 |  36 |   0 | 1.852692e+05 | 1.912030e+05 |   3.20%| unknown
  5.7s|     1 |     0 |  5740 |     - |    95M |   0 |8550 |8641 |8611 |   3 |  1 |  36 |   0 | 1.853137e+05 | 1.912030e+05 |   3.18%| unknown
  6.4s|     1 |     0 |  5858 |     - |    96M |   0 |8550 |8641 |8613 |   5 |  2 |  36 |   0 | 1.853325e+05 | 1.912030e+05 |   3.17%| unknown
  6.9s|     1 |     0 |  5919 |     - |    98M |   0 |8550 |8641 |8614 |   6 |  3 |  36 |   0 | 1.853423e+05 | 1.912030e+05 |   3.16%| unknown
L22.9s|     1 |     0 | 29340 |     - |    rens|   0 |8550 |8641 |8614 |   6 |  5 |  36 |   0 | 1.853423e+05 | 1.871570e+05 |   0.98%| unknown
 23.0s|     1 |     0 | 29340 |     - |   101M |   0 |8550 |8641 |8614 |   6 |  5 |  36 |   0 | 1.853423e+05 | 1.871570e+05 |   0.98%| unknown
 23.1s|     1 |     0 | 29340 |     - |   101M |   0 |8550 |8641 |6280 |   6 |  5 |  36 |   0 | 1.853423e+05 | 1.871570e+05 |   0.98%| unknown
 23.6s|     1 |     0 | 29436 |     - |   102M |   0 |8550 |6296 |6269 |   8 |  6 |  36 |   0 | 1.853539e+05 | 1.871570e+05 |   0.97%| unknown
 23.7s|     1 |     0 | 29436 |     - |   102M |   0 |8550 |6296 |6258 |   8 |  6 |  36 |   0 | 1.853539e+05 | 1.871570e+05 |   0.97%| unknown
(run 1, node 1) restarting after 2427 global fixings of integer variables

(restart) converted 8 cuts from the global cut pool into linear constraints

presolving:
(round 1, fast)       2427 del vars, 22 del conss, 0 add conss, 0 chg bounds, 0 chg sides, 2662 chg coeffs, 0 upgd conss, 0 impls, 6022 clqs
   (23.8s) running MILP presolver
   (23.8s) MILP presolver found nothing
(round 2, medium)     2427 del vars, 296 del conss, 258 add conss, 0 chg bounds, 1 chg sides, 2664 chg coeffs, 0 upgd conss, 0 impls, 6034 clqs
(round 3, exhaustive) 2427 del vars, 296 del conss, 258 add conss, 0 chg bounds, 1 chg sides, 2664 chg coeffs, 8 upgd conss, 0 impls, 6034 clqs
presolving (4 rounds: 4 fast, 3 medium, 2 exhaustive):
 2427 deleted vars, 296 deleted constraints, 258 added constraints, 0 tightened bounds, 0 added holes, 1 changed sides, 2664 changed coefficients
 0 implications, 6034 cliques
presolved problem has 6123 variables (6123 bin, 0 int, 0 impl, 0 cont) and 6173 constraints
    131 constraints of type <knapsack>
   5986 constraints of type <setppc>
     56 constraints of type <logicor>
transformed objective value is always integral (scale: 1)
Presolving Time: 0.92
transformed 3/7 original solutions to the transformed problem space

 time | node  | left  |LP iter|LP it/n|mem/heur|mdpt |vars |cons |rows |cuts |sepa|confs|strbr|  dualbound   | primalbound  |  gap   | compl. 
 27.0s|     1 |     0 | 37042 |     - |   104M |   0 |6123 |6173 |6173 |   0 |  0 |  36 |   0 | 1.853539e+05 | 1.871570e+05 |   0.97%| unknown
 27.0s|     1 |     0 | 37042 |     - |   104M |   0 |6123 |6173 |6096 |   0 |  0 |  36 |   0 | 1.853539e+05 | 1.871570e+05 |   0.97%| unknown
 27.6s|     1 |     0 | 37155 |     - |   106M |   0 |6123 |6096 |6099 |   3 |  1 |  36 |   0 | 1.853663e+05 | 1.871570e+05 |   0.97%| unknown
 27.6s|     1 |     0 | 37155 |     - |   106M |   0 |6123 |6096 |6084 |   3 |  1 |  36 |   0 | 1.853663e+05 | 1.871570e+05 |   0.97%| unknown
 28.0s|     1 |     0 | 37235 |     - |   106M |   0 |6123 |6081 |6085 |   4 |  2 |  36 |   0 | 1.853715e+05 | 1.871570e+05 |   0.96%| unknown
 28.0s|     1 |     0 | 37235 |     - |   106M |   0 |6123 |6081 |6075 |   4 |  2 |  36 |   0 | 1.853715e+05 | 1.871570e+05 |   0.96%| unknown
 28.4s|     1 |     0 | 37294 |     - |   107M |   0 |6123 |6071 |6077 |   6 |  3 |  36 |   0 | 1.853781e+05 | 1.871570e+05 |   0.96%| unknown
 28.4s|     1 |     0 | 37294 |     - |   107M |   0 |6123 |6071 |6072 |   6 |  3 |  36 |   0 | 1.853781e+05 | 1.871570e+05 |   0.96%| unknown
 28.8s|     1 |     0 | 37360 |     - |   108M |   0 |6123 |6066 |6074 |   8 |  4 |  36 |   0 | 1.853828e+05 | 1.871570e+05 |   0.96%| unknown
 28.9s|     1 |     0 | 37360 |     - |   108M |   0 |6123 |6066 |6063 |   8 |  4 |  36 |   0 | 1.853828e+05 | 1.871570e+05 |   0.96%| unknown
 29.3s|     1 |     0 | 37411 |     - |   109M |   0 |6123 |6055 |6064 |   9 |  5 |  36 |   0 | 1.853867e+05 | 1.871570e+05 |   0.95%| unknown
 29.4s|     1 |     0 | 37411 |     - |   109M |   0 |6123 |6055 |6061 |   9 |  5 |  36 |   0 | 1.853867e+05 | 1.871570e+05 |   0.95%| unknown
 48.7s|     1 |     2 | 39967 |     - |   109M |   0 |6123 |6051 |6061 |   9 |  7 |  41 |  47 | 1.855157e+05 | 1.871570e+05 |   0.88%| unknown
*77.4s|     6 |     5 | 42604 |4788.8 |strongbr|   5 |6123 |6051 |6059 |   9 |  2 |  41 | 140 | 1.855969e+05 | 1.869360e+05 |   0.72%| unknown
*92.4s|    11 |     3 | 45263 |2853.8 |strongbr|   6 |6123 |6121 |6059 |   9 |  2 | 111 | 225 | 1.855969e+05 | 1.863220e+05 |   0.39%|  19.36%

SCIP Status        : problem is solved [optimal solution found]
Solving Time (sec) : 111.61
Solving Nodes      : 64 (total of 65 nodes in 2 runs)
Primal Bound       : +1.86322000000000e+05 (10 solutions)
Dual Bound         : +1.86322000000000e+05
Gap                : 0.00 %
Solve Status: optimal
Solve Time: 111.62 seconds
Objective Value: 186322.00
